; benchmark generated from python API
(set-info :status unknown)
(declare-fun x_epoch () Int)
(declare-fun x_plus_epoch () Int)
(declare-fun x_plus_month () Int)
(declare-fun x_plus_year () Int)
(declare-fun x_plus_day () Int)
(declare-fun x_plus_1_epoch () Int)
(assert
 (>= x_epoch (- 36525)))
(assert
 (<= x_epoch 36523))
(assert
 (>= x_epoch 7214))
(assert
 (<= x_epoch 7304))
(assert
 (>= x_plus_epoch (- 36525)))
(assert
 (<= x_plus_epoch 36523))
(assert
 (let (($x689 (= x_plus_month 11)))
 (let (($x619 (= x_plus_month 9)))
 (let (($x1022 (= x_plus_month 6)))
 (let (($x1048 (= x_plus_month 4)))
 (let ((?x591 (ite (or $x1048 $x1022 $x619 $x689) 30 31)))
 (let (($x542 (= (mod x_plus_year 400) 0)))
 (let (($x3621 (= (mod x_plus_year 4) 0)))
 (let (($x665 (or (and $x3621 (and (distinct (mod x_plus_year 100) 0) true)) $x542)))
 (let (($x2777 (= x_plus_month 2)))
 (let (($x534 (>= x_plus_day 1)))
 (let (($x1785 (<= x_plus_month 12)))
 (let (($x1071 (>= x_plus_month 1)))
 (let (($x942 (<= x_plus_year 2100)))
 (let (($x918 (>= x_plus_year 1900)))
 (and $x918 $x942 $x1071 $x1785 $x534 (<= x_plus_day (ite $x2777 (ite $x665 29 28) ?x591))))))))))))))))))
(assert
 (let (($x542 (= (mod x_plus_year 400) 0)))
 (let (($x3621 (= (mod x_plus_year 4) 0)))
 (let (($x665 (or (and $x3621 (and (distinct (mod x_plus_year 100) 0) true)) $x542)))
 (let (($x477 (= 2 x_plus_month)))
 (let ((?x960 (ite $x477 (ite $x665 31 31) (ite (= 1 x_plus_month) (ite $x665 0 0) 0))))
 (let (($x954 (= 3 x_plus_month)))
 (let (($x1070 (= 4 x_plus_month)))
 (let ((?x784 (ite $x1070 (ite $x665 91 90) (ite $x954 (ite $x665 60 59) ?x960))))
 (let (($x1146 (= 5 x_plus_month)))
 (let (($x583 (= 6 x_plus_month)))
 (let ((?x1075 (ite $x583 (ite $x665 152 151) (ite $x1146 (ite $x665 121 120) ?x784))))
 (let (($x1166 (= 7 x_plus_month)))
 (let (($x443 (= 8 x_plus_month)))
 (let ((?x1045 (ite $x443 (ite $x665 213 212) (ite $x1166 (ite $x665 182 181) ?x1075))))
 (let (($x575 (= 9 x_plus_month)))
 (let (($x1097 (= 10 x_plus_month)))
 (let ((?x1024 (ite $x1097 (ite $x665 274 273) (ite $x575 (ite $x665 244 243) ?x1045))))
 (let (($x959 (= 11 x_plus_month)))
 (let (($x446 (= 12 x_plus_month)))
 (let ((?x858 (ite $x446 (ite $x665 335 334) (ite $x959 (ite $x665 305 304) ?x1024))))
 (let ((?x776 (+ (* 365 (- x_plus_year 1)) (div (- x_plus_year 1) 4))))
 (let ((?x1133 (+ (- ?x776 (div (- x_plus_year 1) 100)) (div (- x_plus_year 1) 400))))
 (= x_plus_epoch (- (+ (+ ?x1133 ?x858) (- x_plus_day 1)) 730179)))))))))))))))))))))))))
(assert
 (let ((?x625 (+ x_epoch 730179)))
 (let ((?x408 (mod ?x625 146097)))
 (let ((?x764 (div ?x408 36524)))
 (let ((?x2770 (ite (<= 4 ?x764) 3 ?x764)))
 (let ((?x747 (- ?x408 (* ?x2770 36524))))
 (let ((?x553 (mod ?x747 1461)))
 (let ((?x1202 (div ?x553 365)))
 (let ((?x833 (ite (<= 4 ?x1202) 3 ?x1202)))
 (let ((?x440 (+ (+ (* (div ?x625 146097) 400) (* ?x2770 100)) (* (div ?x747 1461) 4))))
 (let ((?x1965 (+ (+ ?x440 ?x833) 1)))
 (let (($x2719 (or (and (= (mod ?x1965 4) 0) (and (distinct (mod ?x1965 100) 0) true)) (= (mod ?x1965 400) 0))))
 (let ((?x1603 (- ?x553 (* ?x833 365))))
 (let ((?x1200 (ite $x2719 31 31)))
 (let (($x951 (>= ?x1603 ?x1200)))
 (let ((?x1907 (ite $x951 (+ (- ?x1603 ?x1200) 1) (+ (- ?x1603 (ite $x2719 0 0)) 1))))
 (let ((?x1443 (ite $x2719 60 59)))
 (let (($x1168 (>= ?x1603 ?x1443)))
 (let ((?x3433 (ite $x2719 91 90)))
 (let (($x937 (>= ?x1603 ?x3433)))
 (let ((?x3745 (ite $x937 (+ (- ?x1603 ?x3433) 1) (ite $x1168 (+ (- ?x1603 ?x1443) 1) ?x1907))))
 (let ((?x831 (ite $x2719 121 120)))
 (let (($x3077 (>= ?x1603 ?x831)))
 (let ((?x836 (ite $x2719 152 151)))
 (let (($x431 (>= ?x1603 ?x836)))
 (let ((?x1421 (ite $x431 (+ (- ?x1603 ?x836) 1) (ite $x3077 (+ (- ?x1603 ?x831) 1) ?x3745))))
 (let ((?x935 (ite $x2719 182 181)))
 (let (($x1307 (>= ?x1603 ?x935)))
 (let ((?x432 (ite $x2719 213 212)))
 (let (($x3279 (>= ?x1603 ?x432)))
 (let ((?x2539 (ite $x3279 (+ (- ?x1603 ?x432) 1) (ite $x1307 (+ (- ?x1603 ?x935) 1) ?x1421))))
 (let ((?x941 (ite $x2719 244 243)))
 (let (($x1683 (>= ?x1603 ?x941)))
 (let ((?x470 (ite $x2719 274 273)))
 (let (($x695 (>= ?x1603 ?x470)))
 (let ((?x838 (ite $x695 (+ (- ?x1603 ?x470) 1) (ite $x1683 (+ (- ?x1603 ?x941) 1) ?x2539))))
 (let ((?x1235 (ite $x2719 305 304)))
 (let (($x3462 (>= ?x1603 ?x1235)))
 (let ((?x1238 (ite $x2719 335 334)))
 (let (($x2527 (>= ?x1603 ?x1238)))
 (let ((?x883 (ite $x2527 (+ (- ?x1603 ?x1238) 1) (ite $x3462 (+ (- ?x1603 ?x1235) 1) ?x838))))
 (let ((?x756 (+ (* 1 12) 0)))
 (let ((?x536 (ite $x3077 5 (ite $x937 4 (ite $x1168 3 (ite $x951 2 1))))))
 (let ((?x992 (ite $x1683 9 (ite $x3279 8 (ite $x1307 7 (ite $x431 6 ?x536))))))
 (let ((?x2924 (ite $x2527 12 (ite $x3462 11 (ite $x695 10 ?x992)))))
 (let ((?x2416 (+ ?x2924 ?x756)))
 (let ((?x594 (- ?x2416 1)))
 (let ((?x2934 (+ (mod ?x594 12) 1)))
 (let ((?x3259 (ite (or (= ?x2934 4) (= ?x2934 6) (= ?x2934 9) (= ?x2934 11)) 30 31)))
 (let (($x3824 (and (= (mod (+ ?x1965 (+ 0 (div ?x594 12))) 4) 0) (and (distinct (mod (+ ?x1965 (+ 0 (div ?x594 12))) 100) 0) true))))
 (let (($x456 (or $x3824 (= (mod (+ ?x1965 (+ 0 (div ?x594 12))) 400) 0))))
 (let ((?x876 (ite (= ?x2934 2) (ite $x456 29 28) ?x3259)))
 (let (($x2761 (> 1 ?x883)))
 (let ((?x903 (ite $x2761 1 (ite (> ?x883 ?x876) ?x876 ?x883))))
 (let ((?x2543 (ite (> 1 ?x903) 1 (ite (> ?x903 ?x876) ?x876 ?x903))))
 (let ((?x2486 (ite (= 2 ?x2934) (ite $x456 31 31) (ite (= 1 ?x2934) (ite $x456 0 0) 0))))
 (let ((?x3536 (ite (= 4 ?x2934) (ite $x456 91 90) (ite (= 3 ?x2934) (ite $x456 60 59) ?x2486))))
 (let ((?x3611 (ite (= 6 ?x2934) (ite $x456 152 151) (ite (= 5 ?x2934) (ite $x456 121 120) ?x3536))))
 (let ((?x2082 (ite (= 8 ?x2934) (ite $x456 213 212) (ite (= 7 ?x2934) (ite $x456 182 181) ?x3611))))
 (let ((?x3686 (ite (= 10 ?x2934) (ite $x456 274 273) (ite (= 9 ?x2934) (ite $x456 244 243) ?x2082))))
 (let ((?x3261 (ite (= 12 ?x2934) (ite $x456 335 334) (ite (= 11 ?x2934) (ite $x456 305 304) ?x3686))))
 (let ((?x439 (+ (* 365 (- (+ ?x1965 (+ 0 (div ?x594 12))) 1)) (div (- (+ ?x1965 (+ 0 (div ?x594 12))) 1) 4))))
 (let ((?x3882 (+ (- ?x439 (div (- (+ ?x1965 (+ 0 (div ?x594 12))) 1) 100)) (div (- (+ ?x1965 (+ 0 (div ?x594 12))) 1) 400))))
 (let ((?x3357 (+ (+ (- (+ (+ ?x3882 ?x3261) (- ?x2543 1)) 730179) 0) 730179)))
 (let ((?x1204 (mod ?x3357 146097)))
 (let ((?x429 (div ?x1204 36524)))
 (let ((?x3514 (ite (<= 4 ?x429) 3 ?x429)))
 (let ((?x3647 (- ?x1204 (* ?x3514 36524))))
 (let ((?x2943 (mod ?x3647 1461)))
 (let ((?x3703 (div ?x2943 365)))
 (let ((?x3653 (ite (<= 4 ?x3703) 3 ?x3703)))
 (let ((?x2396 (+ (+ (* (div ?x3357 146097) 400) (* ?x3514 100)) (* (div ?x3647 1461) 4))))
 (let ((?x1080 (+ (+ ?x2396 ?x3653) 1)))
 (let ((?x1287 (+ 0 (div ?x594 12))))
 (let ((?x556 (+ ?x1965 ?x1287)))
 (let (($x3270 (= 0 0)))
 (let ((?x2549 (ite $x3270 ?x556 ?x1080)))
 (= x_plus_year ?x2549))))))))))))))))))))))))))))))))))))))))))))))))))))))))))))))))))))))))))))))
(assert
 (let ((?x625 (+ x_epoch 730179)))
 (let ((?x408 (mod ?x625 146097)))
 (let ((?x764 (div ?x408 36524)))
 (let ((?x2770 (ite (<= 4 ?x764) 3 ?x764)))
 (let ((?x747 (- ?x408 (* ?x2770 36524))))
 (let ((?x553 (mod ?x747 1461)))
 (let ((?x1202 (div ?x553 365)))
 (let ((?x833 (ite (<= 4 ?x1202) 3 ?x1202)))
 (let ((?x440 (+ (+ (* (div ?x625 146097) 400) (* ?x2770 100)) (* (div ?x747 1461) 4))))
 (let ((?x1965 (+ (+ ?x440 ?x833) 1)))
 (let (($x2719 (or (and (= (mod ?x1965 4) 0) (and (distinct (mod ?x1965 100) 0) true)) (= (mod ?x1965 400) 0))))
 (let ((?x1603 (- ?x553 (* ?x833 365))))
 (let ((?x1200 (ite $x2719 31 31)))
 (let (($x951 (>= ?x1603 ?x1200)))
 (let ((?x1907 (ite $x951 (+ (- ?x1603 ?x1200) 1) (+ (- ?x1603 (ite $x2719 0 0)) 1))))
 (let ((?x1443 (ite $x2719 60 59)))
 (let (($x1168 (>= ?x1603 ?x1443)))
 (let ((?x3433 (ite $x2719 91 90)))
 (let (($x937 (>= ?x1603 ?x3433)))
 (let ((?x3745 (ite $x937 (+ (- ?x1603 ?x3433) 1) (ite $x1168 (+ (- ?x1603 ?x1443) 1) ?x1907))))
 (let ((?x831 (ite $x2719 121 120)))
 (let (($x3077 (>= ?x1603 ?x831)))
 (let ((?x836 (ite $x2719 152 151)))
 (let (($x431 (>= ?x1603 ?x836)))
 (let ((?x1421 (ite $x431 (+ (- ?x1603 ?x836) 1) (ite $x3077 (+ (- ?x1603 ?x831) 1) ?x3745))))
 (let ((?x935 (ite $x2719 182 181)))
 (let (($x1307 (>= ?x1603 ?x935)))
 (let ((?x432 (ite $x2719 213 212)))
 (let (($x3279 (>= ?x1603 ?x432)))
 (let ((?x2539 (ite $x3279 (+ (- ?x1603 ?x432) 1) (ite $x1307 (+ (- ?x1603 ?x935) 1) ?x1421))))
 (let ((?x941 (ite $x2719 244 243)))
 (let (($x1683 (>= ?x1603 ?x941)))
 (let ((?x470 (ite $x2719 274 273)))
 (let (($x695 (>= ?x1603 ?x470)))
 (let ((?x838 (ite $x695 (+ (- ?x1603 ?x470) 1) (ite $x1683 (+ (- ?x1603 ?x941) 1) ?x2539))))
 (let ((?x1235 (ite $x2719 305 304)))
 (let (($x3462 (>= ?x1603 ?x1235)))
 (let ((?x1238 (ite $x2719 335 334)))
 (let (($x2527 (>= ?x1603 ?x1238)))
 (let ((?x883 (ite $x2527 (+ (- ?x1603 ?x1238) 1) (ite $x3462 (+ (- ?x1603 ?x1235) 1) ?x838))))
 (let ((?x756 (+ (* 1 12) 0)))
 (let ((?x536 (ite $x3077 5 (ite $x937 4 (ite $x1168 3 (ite $x951 2 1))))))
 (let ((?x992 (ite $x1683 9 (ite $x3279 8 (ite $x1307 7 (ite $x431 6 ?x536))))))
 (let ((?x2924 (ite $x2527 12 (ite $x3462 11 (ite $x695 10 ?x992)))))
 (let ((?x2416 (+ ?x2924 ?x756)))
 (let ((?x594 (- ?x2416 1)))
 (let ((?x2934 (+ (mod ?x594 12) 1)))
 (let ((?x3259 (ite (or (= ?x2934 4) (= ?x2934 6) (= ?x2934 9) (= ?x2934 11)) 30 31)))
 (let (($x3824 (and (= (mod (+ ?x1965 (+ 0 (div ?x594 12))) 4) 0) (and (distinct (mod (+ ?x1965 (+ 0 (div ?x594 12))) 100) 0) true))))
 (let (($x456 (or $x3824 (= (mod (+ ?x1965 (+ 0 (div ?x594 12))) 400) 0))))
 (let ((?x876 (ite (= ?x2934 2) (ite $x456 29 28) ?x3259)))
 (let (($x2761 (> 1 ?x883)))
 (let ((?x903 (ite $x2761 1 (ite (> ?x883 ?x876) ?x876 ?x883))))
 (let ((?x2543 (ite (> 1 ?x903) 1 (ite (> ?x903 ?x876) ?x876 ?x903))))
 (let ((?x2486 (ite (= 2 ?x2934) (ite $x456 31 31) (ite (= 1 ?x2934) (ite $x456 0 0) 0))))
 (let ((?x3536 (ite (= 4 ?x2934) (ite $x456 91 90) (ite (= 3 ?x2934) (ite $x456 60 59) ?x2486))))
 (let ((?x3611 (ite (= 6 ?x2934) (ite $x456 152 151) (ite (= 5 ?x2934) (ite $x456 121 120) ?x3536))))
 (let ((?x2082 (ite (= 8 ?x2934) (ite $x456 213 212) (ite (= 7 ?x2934) (ite $x456 182 181) ?x3611))))
 (let ((?x3686 (ite (= 10 ?x2934) (ite $x456 274 273) (ite (= 9 ?x2934) (ite $x456 244 243) ?x2082))))
 (let ((?x3261 (ite (= 12 ?x2934) (ite $x456 335 334) (ite (= 11 ?x2934) (ite $x456 305 304) ?x3686))))
 (let ((?x439 (+ (* 365 (- (+ ?x1965 (+ 0 (div ?x594 12))) 1)) (div (- (+ ?x1965 (+ 0 (div ?x594 12))) 1) 4))))
 (let ((?x3882 (+ (- ?x439 (div (- (+ ?x1965 (+ 0 (div ?x594 12))) 1) 100)) (div (- (+ ?x1965 (+ 0 (div ?x594 12))) 1) 400))))
 (let ((?x3357 (+ (+ (- (+ (+ ?x3882 ?x3261) (- ?x2543 1)) 730179) 0) 730179)))
 (let ((?x1204 (mod ?x3357 146097)))
 (let ((?x429 (div ?x1204 36524)))
 (let ((?x3514 (ite (<= 4 ?x429) 3 ?x429)))
 (let ((?x3647 (- ?x1204 (* ?x3514 36524))))
 (let ((?x2943 (mod ?x3647 1461)))
 (let ((?x3703 (div ?x2943 365)))
 (let ((?x3653 (ite (<= 4 ?x3703) 3 ?x3703)))
 (let ((?x2396 (+ (+ (* (div ?x3357 146097) 400) (* ?x3514 100)) (* (div ?x3647 1461) 4))))
 (let ((?x1080 (+ (+ ?x2396 ?x3653) 1)))
 (let (($x2945 (or (and (= (mod ?x1080 4) 0) (and (distinct (mod ?x1080 100) 0) true)) (= (mod ?x1080 400) 0))))
 (let ((?x1737 (ite $x2945 31 31)))
 (let ((?x3735 (- ?x2943 (* ?x3653 365))))
 (let (($x3404 (>= ?x3735 ?x1737)))
 (let ((?x2974 (ite $x2945 60 59)))
 (let (($x3318 (>= ?x3735 ?x2974)))
 (let ((?x1792 (ite $x2945 91 90)))
 (let (($x1850 (>= ?x3735 ?x1792)))
 (let ((?x3749 (ite $x2945 121 120)))
 (let (($x1255 (>= ?x3735 ?x3749)))
 (let ((?x1148 (ite $x1255 5 (ite $x1850 4 (ite $x3318 3 (ite $x3404 2 1))))))
 (let ((?x2907 (ite $x2945 152 151)))
 (let (($x1933 (>= ?x3735 ?x2907)))
 (let ((?x2283 (ite $x2945 182 181)))
 (let (($x1450 (>= ?x3735 ?x2283)))
 (let ((?x2374 (ite $x2945 213 212)))
 (let (($x1927 (>= ?x3735 ?x2374)))
 (let ((?x2798 (ite $x2945 244 243)))
 (let (($x1641 (>= ?x3735 ?x2798)))
 (let ((?x1638 (ite $x1641 9 (ite $x1927 8 (ite $x1450 7 (ite $x1933 6 ?x1148))))))
 (let ((?x1241 (ite $x2945 274 273)))
 (let (($x3576 (>= ?x3735 ?x1241)))
 (let ((?x3704 (ite $x2945 305 304)))
 (let (($x1282 (>= ?x3735 ?x3704)))
 (let ((?x3582 (ite $x2945 335 334)))
 (let (($x2447 (>= ?x3735 ?x3582)))
 (let (($x3270 (= 0 0)))
 (let ((?x2344 (ite $x3270 ?x2934 (ite $x2447 12 (ite $x1282 11 (ite $x3576 10 ?x1638))))))
 (= x_plus_month ?x2344))))))))))))))))))))))))))))))))))))))))))))))))))))))))))))))))))))))))))))))))))))))))))))))))))))))
(assert
 (let ((?x625 (+ x_epoch 730179)))
 (let ((?x408 (mod ?x625 146097)))
 (let ((?x764 (div ?x408 36524)))
 (let ((?x2770 (ite (<= 4 ?x764) 3 ?x764)))
 (let ((?x747 (- ?x408 (* ?x2770 36524))))
 (let ((?x553 (mod ?x747 1461)))
 (let ((?x1202 (div ?x553 365)))
 (let ((?x833 (ite (<= 4 ?x1202) 3 ?x1202)))
 (let ((?x440 (+ (+ (* (div ?x625 146097) 400) (* ?x2770 100)) (* (div ?x747 1461) 4))))
 (let ((?x1965 (+ (+ ?x440 ?x833) 1)))
 (let (($x2719 (or (and (= (mod ?x1965 4) 0) (and (distinct (mod ?x1965 100) 0) true)) (= (mod ?x1965 400) 0))))
 (let ((?x1603 (- ?x553 (* ?x833 365))))
 (let ((?x1200 (ite $x2719 31 31)))
 (let (($x951 (>= ?x1603 ?x1200)))
 (let ((?x1907 (ite $x951 (+ (- ?x1603 ?x1200) 1) (+ (- ?x1603 (ite $x2719 0 0)) 1))))
 (let ((?x1443 (ite $x2719 60 59)))
 (let (($x1168 (>= ?x1603 ?x1443)))
 (let ((?x3433 (ite $x2719 91 90)))
 (let (($x937 (>= ?x1603 ?x3433)))
 (let ((?x3745 (ite $x937 (+ (- ?x1603 ?x3433) 1) (ite $x1168 (+ (- ?x1603 ?x1443) 1) ?x1907))))
 (let ((?x831 (ite $x2719 121 120)))
 (let (($x3077 (>= ?x1603 ?x831)))
 (let ((?x836 (ite $x2719 152 151)))
 (let (($x431 (>= ?x1603 ?x836)))
 (let ((?x1421 (ite $x431 (+ (- ?x1603 ?x836) 1) (ite $x3077 (+ (- ?x1603 ?x831) 1) ?x3745))))
 (let ((?x935 (ite $x2719 182 181)))
 (let (($x1307 (>= ?x1603 ?x935)))
 (let ((?x432 (ite $x2719 213 212)))
 (let (($x3279 (>= ?x1603 ?x432)))
 (let ((?x2539 (ite $x3279 (+ (- ?x1603 ?x432) 1) (ite $x1307 (+ (- ?x1603 ?x935) 1) ?x1421))))
 (let ((?x941 (ite $x2719 244 243)))
 (let (($x1683 (>= ?x1603 ?x941)))
 (let ((?x470 (ite $x2719 274 273)))
 (let (($x695 (>= ?x1603 ?x470)))
 (let ((?x838 (ite $x695 (+ (- ?x1603 ?x470) 1) (ite $x1683 (+ (- ?x1603 ?x941) 1) ?x2539))))
 (let ((?x1235 (ite $x2719 305 304)))
 (let (($x3462 (>= ?x1603 ?x1235)))
 (let ((?x1238 (ite $x2719 335 334)))
 (let (($x2527 (>= ?x1603 ?x1238)))
 (let ((?x883 (ite $x2527 (+ (- ?x1603 ?x1238) 1) (ite $x3462 (+ (- ?x1603 ?x1235) 1) ?x838))))
 (let ((?x756 (+ (* 1 12) 0)))
 (let ((?x536 (ite $x3077 5 (ite $x937 4 (ite $x1168 3 (ite $x951 2 1))))))
 (let ((?x992 (ite $x1683 9 (ite $x3279 8 (ite $x1307 7 (ite $x431 6 ?x536))))))
 (let ((?x2924 (ite $x2527 12 (ite $x3462 11 (ite $x695 10 ?x992)))))
 (let ((?x2416 (+ ?x2924 ?x756)))
 (let ((?x594 (- ?x2416 1)))
 (let ((?x2934 (+ (mod ?x594 12) 1)))
 (let ((?x3259 (ite (or (= ?x2934 4) (= ?x2934 6) (= ?x2934 9) (= ?x2934 11)) 30 31)))
 (let (($x3824 (and (= (mod (+ ?x1965 (+ 0 (div ?x594 12))) 4) 0) (and (distinct (mod (+ ?x1965 (+ 0 (div ?x594 12))) 100) 0) true))))
 (let (($x456 (or $x3824 (= (mod (+ ?x1965 (+ 0 (div ?x594 12))) 400) 0))))
 (let ((?x876 (ite (= ?x2934 2) (ite $x456 29 28) ?x3259)))
 (let (($x2761 (> 1 ?x883)))
 (let ((?x903 (ite $x2761 1 (ite (> ?x883 ?x876) ?x876 ?x883))))
 (let ((?x2543 (ite (> 1 ?x903) 1 (ite (> ?x903 ?x876) ?x876 ?x903))))
 (let ((?x2486 (ite (= 2 ?x2934) (ite $x456 31 31) (ite (= 1 ?x2934) (ite $x456 0 0) 0))))
 (let ((?x3536 (ite (= 4 ?x2934) (ite $x456 91 90) (ite (= 3 ?x2934) (ite $x456 60 59) ?x2486))))
 (let ((?x3611 (ite (= 6 ?x2934) (ite $x456 152 151) (ite (= 5 ?x2934) (ite $x456 121 120) ?x3536))))
 (let ((?x2082 (ite (= 8 ?x2934) (ite $x456 213 212) (ite (= 7 ?x2934) (ite $x456 182 181) ?x3611))))
 (let ((?x3686 (ite (= 10 ?x2934) (ite $x456 274 273) (ite (= 9 ?x2934) (ite $x456 244 243) ?x2082))))
 (let ((?x3261 (ite (= 12 ?x2934) (ite $x456 335 334) (ite (= 11 ?x2934) (ite $x456 305 304) ?x3686))))
 (let ((?x439 (+ (* 365 (- (+ ?x1965 (+ 0 (div ?x594 12))) 1)) (div (- (+ ?x1965 (+ 0 (div ?x594 12))) 1) 4))))
 (let ((?x3882 (+ (- ?x439 (div (- (+ ?x1965 (+ 0 (div ?x594 12))) 1) 100)) (div (- (+ ?x1965 (+ 0 (div ?x594 12))) 1) 400))))
 (let ((?x3357 (+ (+ (- (+ (+ ?x3882 ?x3261) (- ?x2543 1)) 730179) 0) 730179)))
 (let ((?x1204 (mod ?x3357 146097)))
 (let ((?x429 (div ?x1204 36524)))
 (let ((?x3514 (ite (<= 4 ?x429) 3 ?x429)))
 (let ((?x3647 (- ?x1204 (* ?x3514 36524))))
 (let ((?x2943 (mod ?x3647 1461)))
 (let ((?x3703 (div ?x2943 365)))
 (let ((?x3653 (ite (<= 4 ?x3703) 3 ?x3703)))
 (let ((?x2396 (+ (+ (* (div ?x3357 146097) 400) (* ?x3514 100)) (* (div ?x3647 1461) 4))))
 (let ((?x1080 (+ (+ ?x2396 ?x3653) 1)))
 (let (($x2945 (or (and (= (mod ?x1080 4) 0) (and (distinct (mod ?x1080 100) 0) true)) (= (mod ?x1080 400) 0))))
 (let ((?x3735 (- ?x2943 (* ?x3653 365))))
 (let ((?x1737 (ite $x2945 31 31)))
 (let (($x3404 (>= ?x3735 ?x1737)))
 (let ((?x3762 (ite $x3404 (+ (- ?x3735 ?x1737) 1) (+ (- ?x3735 (ite $x2945 0 0)) 1))))
 (let ((?x2974 (ite $x2945 60 59)))
 (let (($x3318 (>= ?x3735 ?x2974)))
 (let ((?x1792 (ite $x2945 91 90)))
 (let (($x1850 (>= ?x3735 ?x1792)))
 (let ((?x3398 (ite $x1850 (+ (- ?x3735 ?x1792) 1) (ite $x3318 (+ (- ?x3735 ?x2974) 1) ?x3762))))
 (let ((?x3749 (ite $x2945 121 120)))
 (let (($x1255 (>= ?x3735 ?x3749)))
 (let ((?x2907 (ite $x2945 152 151)))
 (let (($x1933 (>= ?x3735 ?x2907)))
 (let ((?x3785 (ite $x1933 (+ (- ?x3735 ?x2907) 1) (ite $x1255 (+ (- ?x3735 ?x3749) 1) ?x3398))))
 (let ((?x2283 (ite $x2945 182 181)))
 (let (($x1450 (>= ?x3735 ?x2283)))
 (let ((?x2374 (ite $x2945 213 212)))
 (let (($x1927 (>= ?x3735 ?x2374)))
 (let ((?x3265 (ite $x1927 (+ (- ?x3735 ?x2374) 1) (ite $x1450 (+ (- ?x3735 ?x2283) 1) ?x3785))))
 (let ((?x2798 (ite $x2945 244 243)))
 (let (($x1641 (>= ?x3735 ?x2798)))
 (let ((?x1241 (ite $x2945 274 273)))
 (let (($x3576 (>= ?x3735 ?x1241)))
 (let ((?x1300 (ite $x3576 (+ (- ?x3735 ?x1241) 1) (ite $x1641 (+ (- ?x3735 ?x2798) 1) ?x3265))))
 (let ((?x3704 (ite $x2945 305 304)))
 (let (($x1282 (>= ?x3735 ?x3704)))
 (let ((?x3582 (ite $x2945 335 334)))
 (let (($x2447 (>= ?x3735 ?x3582)))
 (let ((?x2199 (ite $x2447 (+ (- ?x3735 ?x3582) 1) (ite $x1282 (+ (- ?x3735 ?x3704) 1) ?x1300))))
 (let (($x3270 (= 0 0)))
 (let ((?x2799 (ite $x3270 ?x2543 ?x2199)))
 (= x_plus_day ?x2799))))))))))))))))))))))))))))))))))))))))))))))))))))))))))))))))))))))))))))))))))))))))))))))))))))))))))
(assert
 (>= x_plus_1_epoch (- 36525)))
(assert
 (<= x_plus_1_epoch 36523))
(assert
 (= x_plus_1_epoch (+ x_epoch 366)))
(assert
 (not (= x_plus_epoch x_plus_1_epoch)))
(check-sat)
